Optimal - objective value 37.00000000
      2 x#1#3                          1                       1
     10 x#2#1                          1                       1
     11 x#2#2                          1                       1
     12 x#2#3                          1                       1
     13 x#2#4                          1                       1
     17 x#2#8                          1                       1
     21 x#3#2                          1                       1
     24 x#3#5                          1                       1
     27 x#3#8                          1                       1
     28 x#3#9                          1                       1
     31 x#4#2                          1                       1
     36 x#4#7                          1                       1
     37 x#4#8                          1                       1
     40 x#5#1                          1                       1
     42 x#5#3                          1                       1
     44 x#5#5                          1                       1
     45 x#5#6                          1                       1
     51 x#6#2                          1                       1
     52 x#6#3                          1                       1
     55 x#6#6                          1                       1
     57 x#6#8                          1                       1
     63 x#7#4                          1                       1
     68 x#7#9                          1                       1
     71 x#8#2                          1                       1
     74 x#8#5                          1                       1
     75 x#8#6                          1                       1
     76 x#8#7                          1                       1
     79 x#8#10                         1                       1
     81 x#9#2                          1                       1
     82 x#9#3                          1                       1
     84 x#9#5                          1                       1
     85 x#9#6                          1                       1
     90 x#10#1                         1                       1
     94 x#10#5                         1                       1
     95 x#10#6                         1                       1
     96 x#10#7                         1                       1
     97 x#10#8                         1                       1
    100 y#2#2                          2                       0
    101 y#2#3                          2                       0
    102 y#2#4                          1                       0
    103 y#2#5                          1                       0
    105 y#2#7                          1                       0
    106 y#2#8                          1                       0
    107 y#2#9                          1                       0
    108 y#3#2                          2                       0
    109 y#3#3                          1                       0
    110 y#3#4                          1                       0
    111 y#3#5                          1                       0
    112 y#3#6                          1                       0
    113 y#3#7                          1                       0
    114 y#3#8                          2                       0
    115 y#3#9                          1                       0
    116 y#4#2                          1                       0
    117 y#4#3                          1                       0
    119 y#4#5                          1                       0
    120 y#4#6                          1                       0
    121 y#4#7                          1                       0
    122 y#4#8                          2                       0
    123 y#4#9                          1                       0
    124 y#5#2                          2                       0
    125 y#5#3                          1                       0
    126 y#5#4                          1                       0
    127 y#5#5                          1                       0
    128 y#5#6                          2                       0
    129 y#5#7                          1                       0
    130 y#5#8                          1                       0
    132 y#6#2                          1                       0
    133 y#6#3                          2                       0
    134 y#6#4                          1                       0
    135 y#6#5                          1                       0
    136 y#6#6                          1                       0
    137 y#6#7                          1                       0
    138 y#6#8                          1                       0
    139 y#6#9                          1                       0
    140 y#7#2                          1                       0
    141 y#7#3                          1                       0
    142 y#7#4                          1                       0
    143 y#7#5                          1                       0
    144 y#7#6                          1                       0
    145 y#7#7                          1                       0
    146 y#7#8                          1                       0
    147 y#7#9                          1                       0
    148 y#8#2                          1                       0
    149 y#8#3                          1                       0
    150 y#8#4                          1                       0
    151 y#8#5                          2                       0
    152 y#8#6                          2                       0
    153 y#8#7                          1                       0
    154 y#8#8                          1                       0
    155 y#8#9                          1                       0
    156 y#9#2                          2                       0
    157 y#9#3                          1                       0
    158 y#9#4                          1                       0
    159 y#9#5                          2                       0
    160 y#9#6                          2                       0
    161 y#9#7                          2                       0
    162 y#9#8                          1                       0
    164 y#1#2                          1                       0
    165 y#1#3                          1                       0
    166 y#1#4                          1                       0
    170 y#1#8                          1                       0
    172 y#10#2                         1                       0
    173 y#10#3                         1                       0
    174 y#10#4                         1                       0
    175 y#10#5                         2                       0
    176 y#10#6                         2                       0
    177 y#10#7                         2                       0
    178 y#10#8                         1                       0
    179 y#10#9                         1                       0
    180 y#2#1                          1                       0
    181 y#3#1                          1                       0
    182 y#4#1                          1                       0
    183 y#5#1                          1                       0
    184 y#6#1                          1                       0
    186 y#8#1                          1                       0
    187 y#9#1                          1                       0
    189 y#3#10                         1                       0
    193 y#7#10                         1                       0
    194 y#8#10                         1                       0
    195 y#9#10                         1                       0
    196 y#1#1                          1                       0
    197 y#10#1                         1                       0
